min: c;

c = 3.47488834944857 * u2_t7_h3 + 3.66229909806977 * u2_t7_h4 + 3.23576560529748 * u2_t2_h5 + 3.23576560529748 * u2_t3_h5 + 3.23576560529748 * u2_t7_h5 + 3.57135646700725 * u2_t2_h6 + 3.57135646700725 * u2_t3_h6 + 3.57135646700725 * u2_t4_h6 + 3.57135646700725 * u2_t7_h6 + 3.57135646700725 * u2_t10_h6 + 3.6540916986923 * u2_t2_h7 + 3.6540916986923 * u2_t3_h7 + 3.6540916986923 * u2_t4_h7 + 3.6540916986923 * u2_t7_h7 + 3.6540916986923 * u2_t10_h7 + 5.01082579597824 * u2_t2_h8 + 5.01082579597824 * u2_t3_h8 + 5.01082579597824 * u2_t4_h8 + 5.01082579597824 * u2_t7_h8 + 5.01082579597824 * u2_t10_h8 + 4.81437261931057 * u2_t2_h9 + 4.81437261931057 * u2_t3_h9 + 4.81437261931057 * u2_t4_h9 + 4.81437261931057 * u2_t7_h9 + 4.81437261931057 * u2_t10_h9 + 5.50655696179536 * u2_t2_h10 + 5.50655696179536 * u2_t3_h10 + 5.50655696179536 * u2_t4_h10 + 5.50655696179536 * u2_t7_h10 + 5.50655696179536 * u2_t10_h10 + 4.30532398455938 * u2_t1_h11 + 4.30532398455938 * u2_t2_h11 + 4.30532398455938 * u2_t3_h11 + 4.30532398455938 * u2_t4_h11 + 4.30532398455938 * u2_t7_h11 + 4.30532398455938 * u2_t10_h11 + 5.84725104971565 * u2_t1_h12 + 5.84725104971565 * u2_t3_h12 + 5.84725104971565 * u2_t4_h12 + 5.84725104971565 * u2_t7_h12 + 4.31038989729462 * u2_t1_h13 + 4.31038989729462 * u2_t3_h13 + 4.31038989729462 * u2_t4_h13 + 4.31038989729462 * u2_t7_h13 + 4.31038989729462 * u2_t9_h13 + 4.95487036867434 * u2_t1_h14 + 4.95487036867434 * u2_t3_h14 + 4.95487036867434 * u2_t4_h14 + 4.95487036867434 * u2_t7_h14 + 4.95487036867434 * u2_t9_h14 + 6.33427204049809 * u2_t1_h15 + 6.33427204049809 * u2_t3_h15 + 6.33427204049809 * u2_t4_h15 + 6.33427204049809 * u2_t7_h15 + 6.33427204049809 * u2_t9_h15 + 5.86110680161772 * u2_t1_h16 + 5.86110680161772 * u2_t3_h16 + 5.86110680161772 * u2_t4_h16 + 5.86110680161772 * u2_t7_h16 + 5.86110680161772 * u2_t9_h16 + 5.88678624909748 * u2_t1_h17 + 5.88678624909748 * u2_t3_h17 + 5.88678624909748 * u2_t4_h17 + 5.88678624909748 * u2_t7_h17 + 5.88678624909748 * u2_t9_h17 + 6.32435795812129 * u2_t1_h18 + 6.32435795812129 * u2_t3_h18 + 6.32435795812129 * u2_t4_h18 + 6.32435795812129 * u2_t6_h18 + 6.32435795812129 * u2_t7_h18 + 5.86814685315291 * u2_t1_h19 + 5.86814685315291 * u2_t3_h19 + 5.86814685315291 * u2_t4_h19 + 5.86814685315291 * u2_t5_h19 + 5.86814685315291 * u2_t6_h19 + 5.86814685315291 * u2_t7_h19 + 5.47355172862004 * u2_t1_h20 + 5.47355172862004 * u2_t3_h20 + 5.47355172862004 * u2_t4_h20 + 5.47355172862004 * u2_t6_h20 + 5.47355172862004 * u2_t7_h20 + 5.5935682483188 * u2_t1_h21 + 5.5935682483188 * u2_t3_h21 + 5.5935682483188 * u2_t6_h21 + 5.5935682483188 * u2_t7_h21 + 5.5935682483188 * u2_t8_h21 + 5.89200502972277 * u2_t1_h22 + 5.89200502972277 * u2_t3_h22 + 5.89200502972277 * u2_t7_h22 + 5.89200502972277 * u2_t8_h22 + 4.96980910226514 * u2_t3_h23 + 4.96980910226514 * u2_t7_h23 + 4.96980910226514 * u2_t8_h23;
0 <= u2_t1_h11 <= 1;
0 <= u2_t1_h12 <= 1;
0 <= u2_t1_h13 <= 1;
0 <= u2_t1_h14 <= 1;
0 <= u2_t1_h15 <= 1;
0 <= u2_t1_h16 <= 1;
0 <= u2_t1_h17 <= 1;
0 <= u2_t1_h18 <= 1;
0 <= u2_t1_h19 <= 1;
0 <= u2_t1_h20 <= 1;
0 <= u2_t1_h21 <= 1;
0 <= u2_t1_h22 <= 1;
u2_t1_h11 + u2_t1_h12 + u2_t1_h13 + u2_t1_h14 + u2_t1_h15 + u2_t1_h16 + u2_t1_h17 + u2_t1_h18 + u2_t1_h19 + u2_t1_h20 + u2_t1_h21 + u2_t1_h22 = 2;
0 <= u2_t2_h5 <= 1;
0 <= u2_t2_h6 <= 1;
0 <= u2_t2_h7 <= 1;
0 <= u2_t2_h8 <= 1;
0 <= u2_t2_h9 <= 1;
0 <= u2_t2_h10 <= 1;
0 <= u2_t2_h11 <= 1;
u2_t2_h5 + u2_t2_h6 + u2_t2_h7 + u2_t2_h8 + u2_t2_h9 + u2_t2_h10 + u2_t2_h11 = 2;
0 <= u2_t3_h5 <= 1;
0 <= u2_t3_h6 <= 1;
0 <= u2_t3_h7 <= 1;
0 <= u2_t3_h8 <= 1;
0 <= u2_t3_h9 <= 1;
0 <= u2_t3_h10 <= 1;
0 <= u2_t3_h11 <= 1;
0 <= u2_t3_h12 <= 1;
0 <= u2_t3_h13 <= 1;
0 <= u2_t3_h14 <= 1;
0 <= u2_t3_h15 <= 1;
0 <= u2_t3_h16 <= 1;
0 <= u2_t3_h17 <= 1;
0 <= u2_t3_h18 <= 1;
0 <= u2_t3_h19 <= 1;
0 <= u2_t3_h20 <= 1;
0 <= u2_t3_h21 <= 1;
0 <= u2_t3_h22 <= 1;
0 <= u2_t3_h23 <= 1;
u2_t3_h5 + u2_t3_h6 + u2_t3_h7 + u2_t3_h8 + u2_t3_h9 + u2_t3_h10 + u2_t3_h11 + u2_t3_h12 + u2_t3_h13 + u2_t3_h14 + u2_t3_h15 + u2_t3_h16 + u2_t3_h17 + u2_t3_h18 + u2_t3_h19 + u2_t3_h20 + u2_t3_h21 + u2_t3_h22 + u2_t3_h23 = 1;
0 <= u2_t4_h6 <= 1;
0 <= u2_t4_h7 <= 1;
0 <= u2_t4_h8 <= 1;
0 <= u2_t4_h9 <= 1;
0 <= u2_t4_h10 <= 1;
0 <= u2_t4_h11 <= 1;
0 <= u2_t4_h12 <= 1;
0 <= u2_t4_h13 <= 1;
0 <= u2_t4_h14 <= 1;
0 <= u2_t4_h15 <= 1;
0 <= u2_t4_h16 <= 1;
0 <= u2_t4_h17 <= 1;
0 <= u2_t4_h18 <= 1;
0 <= u2_t4_h19 <= 1;
0 <= u2_t4_h20 <= 1;
u2_t4_h6 + u2_t4_h7 + u2_t4_h8 + u2_t4_h9 + u2_t4_h10 + u2_t4_h11 + u2_t4_h12 + u2_t4_h13 + u2_t4_h14 + u2_t4_h15 + u2_t4_h16 + u2_t4_h17 + u2_t4_h18 + u2_t4_h19 + u2_t4_h20 = 3;
0 <= u2_t5_h19 <= 1;
u2_t5_h19 = 1;
0 <= u2_t6_h18 <= 1;
0 <= u2_t6_h19 <= 1;
0 <= u2_t6_h20 <= 1;
0 <= u2_t6_h21 <= 1;
u2_t6_h18 + u2_t6_h19 + u2_t6_h20 + u2_t6_h21 = 2;
0 <= u2_t7_h3 <= 1;
0 <= u2_t7_h4 <= 1;
0 <= u2_t7_h5 <= 1;
0 <= u2_t7_h6 <= 1;
0 <= u2_t7_h7 <= 1;
0 <= u2_t7_h8 <= 1;
0 <= u2_t7_h9 <= 1;
0 <= u2_t7_h10 <= 1;
0 <= u2_t7_h11 <= 1;
0 <= u2_t7_h12 <= 1;
0 <= u2_t7_h13 <= 1;
0 <= u2_t7_h14 <= 1;
0 <= u2_t7_h15 <= 1;
0 <= u2_t7_h16 <= 1;
0 <= u2_t7_h17 <= 1;
0 <= u2_t7_h18 <= 1;
0 <= u2_t7_h19 <= 1;
0 <= u2_t7_h20 <= 1;
0 <= u2_t7_h21 <= 1;
0 <= u2_t7_h22 <= 1;
0 <= u2_t7_h23 <= 1;
u2_t7_h3 + u2_t7_h4 + u2_t7_h5 + u2_t7_h6 + u2_t7_h7 + u2_t7_h8 + u2_t7_h9 + u2_t7_h10 + u2_t7_h11 + u2_t7_h12 + u2_t7_h13 + u2_t7_h14 + u2_t7_h15 + u2_t7_h16 + u2_t7_h17 + u2_t7_h18 + u2_t7_h19 + u2_t7_h20 + u2_t7_h21 + u2_t7_h22 + u2_t7_h23 = 3;
0 <= u2_t8_h21 <= 1;
0 <= u2_t8_h22 <= 1;
0 <= u2_t8_h23 <= 1;
u2_t8_h21 + u2_t8_h22 + u2_t8_h23 = 2;
0 <= u2_t9_h13 <= 1;
0 <= u2_t9_h14 <= 1;
0 <= u2_t9_h15 <= 1;
0 <= u2_t9_h16 <= 1;
0 <= u2_t9_h17 <= 1;
u2_t9_h13 + u2_t9_h14 + u2_t9_h15 + u2_t9_h16 + u2_t9_h17 = 1;
0 <= u2_t10_h6 <= 1;
0 <= u2_t10_h7 <= 1;
0 <= u2_t10_h8 <= 1;
0 <= u2_t10_h9 <= 1;
0 <= u2_t10_h10 <= 1;
0 <= u2_t10_h11 <= 1;
u2_t10_h6 + u2_t10_h7 + u2_t10_h8 + u2_t10_h9 + u2_t10_h10 + u2_t10_h11 = 2;
